[TITLE]
;;Project Title/Notes

[OPTIONS]
;;Option             Value
FLOW_UNITS           CFS
INFILTRATION         HORTON
FLOW_ROUTING         DYNWAVE
LINK_OFFSETS         DEPTH
MIN_SLOPE            0
ALLOW_PONDING        NO
SKIP_STEADY_STATE    NO

START_DATE           01/01/1998
START_TIME           00:00:00
REPORT_START_DATE    01/01/1998
REPORT_START_TIME    00:00:00
END_DATE             01/01/1998
END_TIME             06:00:00
SWEEP_START          01/01
SWEEP_END            12/31
DRY_DAYS             0
REPORT_STEP          00:01:00
WET_STEP             00:05:00
DRY_STEP             01:00:00
ROUTING_STEP         0:00:15 
RULE_STEP            00:00:00

INERTIAL_DAMPING     PARTIAL
NORMAL_FLOW_LIMITED  BOTH
FORCE_MAIN_EQUATION  H-W
VARIABLE_STEP        0.75
LENGTHENING_STEP     0
MIN_SURFAREA         12.566
MAX_TRIALS           8
HEAD_TOLERANCE       0.005
SYS_FLOW_TOL         5
LAT_FLOW_TOL         5
MINIMUM_STEP         0.5
THREADS              1

[EVAPORATION]
;;Data Source    Parameters
;;-------------- ----------------
CONSTANT         0.0
DRY_ONLY         NO

[RAINGAGES]
;;Name           Format    Interval SCF      Source    
;;-------------- --------- ------ ------ ----------
1                INTENSITY 0:05     1.0      TIMESERIES 2-yr            

[SUBCATCHMENTS]
;;Name           Rain Gage        Outlet           Area     %Imperv  Width    %Slope   CurbLen  SnowPack        
;;-------------- ---------------- ---------------- -------- -------- -------- -------- -------- ----------------
S1               1                J1               4.55     56.8     1587     2        0                        
S3               1                J1               3.74     39.5     1456     3.1      0                        
S2               1                J1               4.74     63       1653     2        0                        

[SUBAREAS]
;;Subcatchment   N-Imperv   N-Perv     S-Imperv   S-Perv     PctZero    RouteTo    PctRouted 
;;-------------- ---------- ---------- ---------- ---------- ---------- ---------- ----------
S1               0.015      0.24       0.06       0.3        25         OUTLET    
S3               0.015      0.24       0.06       0.3        25         OUTLET    
S2               0.015      0.24       0.06       0.3        25         OUTLET    

[INFILTRATION]
;;Subcatchment   Param1     Param2     Param3     Param4     Param5    
;;-------------- ---------- ---------- ---------- ---------- ----------
S1               4.5        0.2        6.5        7          0         
S3               4.5        0.2        6.5        7          0         
S2               4.5        0.2        6.5        7          0         

[JUNCTIONS]
;;Name           Elevation  MaxDepth   InitDepth  SurDepth   Aponded   
;;-------------- ---------- ---------- ---------- ---------- ----------
J1               100        4          0          0          0         
J2               98         4          0          0          0         

[OUTFALLS]
;;Name           Elevation  Type       Stage Data       Gated    Route To        
;;-------------- ---------- ---------- ---------------- -------- ----------------
Out1             96         FREE                        NO                       

[CONDUITS]
;;Name           From Node        To Node          Length     Roughness  InOffset   OutOffset  InitFlow   MaxFlow   
;;-------------- ---------------- ---------------- ---------- ---------- ---------- ---------- ---------- ----------
C1               J1               J2               185        0.016      0          0          0          0         
C2               J2               Out1             89         0.016      0          0          0          0         

[XSECTIONS]
;;Link           Shape        Geom1            Geom2      Geom3      Geom4      Barrels    Culvert   
;;-------------- ------------ ---------------- ---------- ---------- ---------- ---------- ----------
C1               CIRCULAR     2                0          0          0          1                    
C2               CIRCULAR     2                0          0          0          1                    

[TIMESERIES]
;;Name           Date       Time       Value     
;;-------------- ---------- ---------- ----------
2-yr                        0:00       0.29      
2-yr                        0:05       0.33      
2-yr                        0:10       0.38      
2-yr                        0:15       0.64      
2-yr                        0:20       0.81      
2-yr                        0:25       1.57      
2-yr                        0:30       2.85      
2-yr                        0:35       1.18      
2-yr                        0:40       0.71      
2-yr                        0:45       0.42      
2-yr                        0:50       0.35      
2-yr                        0:55       0.3       
2-yr                        1:0        0.2       
2-yr                        1:05       0.19      
2-yr                        1:10       0.18      
2-yr                        1:15       0.17      
2-yr                        1:20       0.17      
2-yr                        1:25       0.16      
2-yr                        1:30       0.15      
2-yr                        1:35       0.15      
2-yr                        1:40       0.14      
2-yr                        1:45       0.14      
2-yr                        1:50       0.13      
2-yr                        1:55       0.13      

[REPORT]
;;Reporting Options
SUBCATCHMENTS ALL
NODES ALL
LINKS ALL

[TAGS]

[MAP]
DIMENSIONS 0.000 0.000 10000.000 10000.000
Units      None

[COORDINATES]
;;Node           X-Coord            Y-Coord           
;;-------------- ------------------ ------------------
J1               -1752.199          7052.786          
J2               3247.801           7126.100          
Out1             9186.217           7170.088          

[VERTICES]
;;Link           X-Coord            Y-Coord           
;;-------------- ------------------ ------------------

[Polygons]
;;Subcatchment   X-Coord            Y-Coord           
;;-------------- ------------------ ------------------
S1               -2118.768          8343.109          
S1               -1898.827          8782.991          
S1               -1385.630          8519.062          
S1               -1840.176          8137.830          
S1               -2162.757          8343.109          
S3               -2928.886          7917.889          
S3               -2767.595          7448.680          
S3               -3134.164          7565.982          
S3               -2906.891          7954.545          
S2               -2474.340          7815.249          
S2               -2166.422          7991.202          
S2               -1792.522          7624.633          
S2               -2210.411          7397.361          
S2               -2489.003          7837.243          

[SYMBOLS]
;;Gage           X-Coord            Y-Coord           
;;-------------- ------------------ ------------------
1                -3482.405          8812.317          

